\* Robot_Task_Allocation_Sequential *\
Minimize
OBJ: 1.41421356237 y_0_0_1 + 7.07106781187 y_0_0_2 + 8.48528137424 y_0_0_3
 + 1.41421356237 y_0_1_0 + 5.65685424949 y_0_1_2 + 7.07106781187 y_0_1_3
 + 7.07106781187 y_0_2_0 + 5.65685424949 y_0_2_1 + 1.41421356237 y_0_2_3
 + 8.48528137424 y_0_3_0 + 7.07106781187 y_0_3_1 + 1.41421356237 y_0_3_2
 + 1.41421356237 y_0__1_0 + 2.82842712475 y_0__1_1 + 8.48528137424 y_0__1_2
 + 9.89949493661 y_0__1_3 + 1.41421356237 y_1_0_1 + 7.07106781187 y_1_0_2
 + 8.48528137424 y_1_0_3 + 1.41421356237 y_1_1_0 + 5.65685424949 y_1_1_2
 + 7.07106781187 y_1_1_3 + 7.07106781187 y_1_2_0 + 5.65685424949 y_1_2_1
 + 1.41421356237 y_1_2_3 + 8.48528137424 y_1_3_0 + 7.07106781187 y_1_3_1
 + 1.41421356237 y_1_3_2 + 5.65685424949 y_1__1_0 + 4.24264068712 y_1__1_1
 + 1.41421356237 y_1__1_2 + 2.82842712475 y_1__1_3
Subject To
_C1: x_0_0 + x_1_0 = 1
_C10: - x_0_2 + y_0_2_0 + y_0_2_1 + y_0_2_3 = 0
_C11: - x_0_3 + y_0_0_3 + y_0_1_3 + y_0_2_3 + y_0__1_3 = 0
_C12: - x_0_3 + y_0_3_0 + y_0_3_1 + y_0_3_2 = 0
_C13: - x_1_0 + y_1_1_0 + y_1_2_0 + y_1_3_0 + y_1__1_0 = 0
_C14: - x_1_0 + y_1_0_1 + y_1_0_2 + y_1_0_3 = 0
_C15: - x_1_1 + y_1_0_1 + y_1_2_1 + y_1_3_1 + y_1__1_1 = 0
_C16: - x_1_1 + y_1_1_0 + y_1_1_2 + y_1_1_3 = 0
_C17: - x_1_2 + y_1_0_2 + y_1_1_2 + y_1_3_2 + y_1__1_2 = 0
_C18: - x_1_2 + y_1_2_0 + y_1_2_1 + y_1_2_3 = 0
_C19: - x_1_3 + y_1_0_3 + y_1_1_3 + y_1_2_3 + y_1__1_3 = 0
_C2: x_0_1 + x_1_1 = 1
_C20: - x_1_3 + y_1_3_0 + y_1_3_1 + y_1_3_2 = 0
_C21: y_0__1_0 + y_0__1_1 + y_0__1_2 + y_0__1_3 <= 1
_C22: - 0.25 x_0_0 - 0.25 x_0_1 - 0.25 x_0_2 - 0.25 x_0_3 + y_0__1_0
 + y_0__1_1 + y_0__1_2 + y_0__1_3 >= 0
_C23: y_1__1_0 + y_1__1_1 + y_1__1_2 + y_1__1_3 <= 1
_C24: - 0.25 x_1_0 - 0.25 x_1_1 - 0.25 x_1_2 - 0.25 x_1_3 + y_1__1_0
 + y_1__1_1 + y_1__1_2 + y_1__1_3 >= 0
_C25: u_0_0 - u_0_1 + 4 y_0_0_1 <= 3
_C26: u_0_0 - x_0_0 >= 0
_C27: u_0_0 - u_0_2 + 4 y_0_0_2 <= 3
_C28: u_0_0 - x_0_0 >= 0
_C29: u_0_0 - u_0_3 + 4 y_0_0_3 <= 3
_C3: x_0_2 + x_1_2 = 1
_C30: u_0_0 - x_0_0 >= 0
_C31: - u_0_0 + u_0_1 + 4 y_0_1_0 <= 3
_C32: u_0_1 - x_0_1 >= 0
_C33: u_0_1 - u_0_2 + 4 y_0_1_2 <= 3
_C34: u_0_1 - x_0_1 >= 0
_C35: u_0_1 - u_0_3 + 4 y_0_1_3 <= 3
_C36: u_0_1 - x_0_1 >= 0
_C37: - u_0_0 + u_0_2 + 4 y_0_2_0 <= 3
_C38: u_0_2 - x_0_2 >= 0
_C39: - u_0_1 + u_0_2 + 4 y_0_2_1 <= 3
_C4: x_0_3 + x_1_3 = 1
_C40: u_0_2 - x_0_2 >= 0
_C41: u_0_2 - u_0_3 + 4 y_0_2_3 <= 3
_C42: u_0_2 - x_0_2 >= 0
_C43: - u_0_0 + u_0_3 + 4 y_0_3_0 <= 3
_C44: u_0_3 - x_0_3 >= 0
_C45: - u_0_1 + u_0_3 + 4 y_0_3_1 <= 3
_C46: u_0_3 - x_0_3 >= 0
_C47: - u_0_2 + u_0_3 + 4 y_0_3_2 <= 3
_C48: u_0_3 - x_0_3 >= 0
_C49: u_1_0 - u_1_1 + 4 y_1_0_1 <= 3
_C5: - x_0_0 + y_0_1_0 + y_0_2_0 + y_0_3_0 + y_0__1_0 = 0
_C50: u_1_0 - x_1_0 >= 0
_C51: u_1_0 - u_1_2 + 4 y_1_0_2 <= 3
_C52: u_1_0 - x_1_0 >= 0
_C53: u_1_0 - u_1_3 + 4 y_1_0_3 <= 3
_C54: u_1_0 - x_1_0 >= 0
_C55: - u_1_0 + u_1_1 + 4 y_1_1_0 <= 3
_C56: u_1_1 - x_1_1 >= 0
_C57: u_1_1 - u_1_2 + 4 y_1_1_2 <= 3
_C58: u_1_1 - x_1_1 >= 0
_C59: u_1_1 - u_1_3 + 4 y_1_1_3 <= 3
_C6: - x_0_0 + y_0_0_1 + y_0_0_2 + y_0_0_3 = 0
_C60: u_1_1 - x_1_1 >= 0
_C61: - u_1_0 + u_1_2 + 4 y_1_2_0 <= 3
_C62: u_1_2 - x_1_2 >= 0
_C63: - u_1_1 + u_1_2 + 4 y_1_2_1 <= 3
_C64: u_1_2 - x_1_2 >= 0
_C65: u_1_2 - u_1_3 + 4 y_1_2_3 <= 3
_C66: u_1_2 - x_1_2 >= 0
_C67: - u_1_0 + u_1_3 + 4 y_1_3_0 <= 3
_C68: u_1_3 - x_1_3 >= 0
_C69: - u_1_1 + u_1_3 + 4 y_1_3_1 <= 3
_C7: - x_0_1 + y_0_0_1 + y_0_2_1 + y_0_3_1 + y_0__1_1 = 0
_C70: u_1_3 - x_1_3 >= 0
_C71: - u_1_2 + u_1_3 + 4 y_1_3_2 <= 3
_C72: u_1_3 - x_1_3 >= 0
_C8: - x_0_1 + y_0_1_0 + y_0_1_2 + y_0_1_3 = 0
_C9: - x_0_2 + y_0_0_2 + y_0_1_2 + y_0_3_2 + y_0__1_2 = 0
Bounds
 u_0_0 <= 4
 u_0_1 <= 4
 u_0_2 <= 4
 u_0_3 <= 4
 u_1_0 <= 4
 u_1_1 <= 4
 u_1_2 <= 4
 u_1_3 <= 4
Binaries
x_0_0
x_0_1
x_0_2
x_0_3
x_1_0
x_1_1
x_1_2
x_1_3
y_0_0_1
y_0_0_2
y_0_0_3
y_0_1_0
y_0_1_2
y_0_1_3
y_0_2_0
y_0_2_1
y_0_2_3
y_0_3_0
y_0_3_1
y_0_3_2
y_0__1_0
y_0__1_1
y_0__1_2
y_0__1_3
y_1_0_1
y_1_0_2
y_1_0_3
y_1_1_0
y_1_1_2
y_1_1_3
y_1_2_0
y_1_2_1
y_1_2_3
y_1_3_0
y_1_3_1
y_1_3_2
y_1__1_0
y_1__1_1
y_1__1_2
y_1__1_3
End
